50
7086

741 557
122 113
360 779
705 895
761 298
842 502
429 979
239 17
966 262
159 525
983 84
626 324
431 840
762 601
1 324
177 427
463 204
421 748
834 443
668 562
802 524
33 828
251 773
183 979
811 543
890 767
652 314
565 130
460 84
162 372
263 825
865 742
981 469
542 419
263 834
987 452
616 635
217 137
312 423
889 502
914 909
77 760
885 578
41 442
91 939
233 490
809 728
815 665
651 413
34 746
